1161.01 0
0 109 21 26 32 35 34 36 29 49 50 51 48 47 46 44 41 37 115 94 95 0
0 118 108 17 20 23 28 31 30 33 27 24 22 25 19 16 12 8 85 0
0 101 99 100 116 98 52 54 57 59 40 43 45 42 39 38 97 0
0 119 82 111 86 112 84 18 114 90 91 89 92 93 96 87 0
0 81 2 1 3 4 5 10 11 15 14 13 9 7 6 83 113 117 88 0
0 106 104 103 73 76 77 78 75 72 74 71 70 69 67 120 0
0 102 110 53 55 58 61 65 62 64 66 63 60 56 80 79 68 107 105 0
